15,8	0,0	12,2	14,5	0,0	0,0	0,0	0,0	0,0	17,8
17,0	5,7	0,0	15,5	18,9	0,0	0,0	17,3	0,0	0,0
0,0	0,0	19,9	0,0	13,8	16,5	0,0	0,0	19,9	0,0
9,9	0,0	9,3	0,0	0,0	0,0	14,7	0,0	0,0	0,0
0,0	9,2	0,0	13,4	18,2	0,0	0,0	11,9	0,0	0,0
0,0	17,2	13,0	0,0	8,4	18,9	0,0	0,0	20,0	0,0
0,0	15,1	0,0	17,7	0,0	0,0	11,4	0,0	0,0	15,1
7,3	0,0	7,4	0,0	0,0	0,0	0,0	0,0	0,0	19,5
0,0	19,7	0,0	16,6	17,6	0,0	0,0	5,6	0,0	0,0
0,0	0,0	9,9	0,0	0,0	10,2	7,5	0,0	0,0	13,5
									
3,1	3,4	3,5	2,7	2,8	3,0	3,9	4,4	2,8	2,7
